0 3
0 7
0 9
0 13
0 15
1 2
1 4
1 9
1 10
1 11
1 13
2 4
2 9
2 13
2 14
3 6
3 13
4 9
4 10
4 11
4 13
5 6
5 7
5 8
5 10
5 11
5 12
5 13
6 7
6 12
6 13
6 14
6 15
7 10
7 11
7 13
8 9
8 11
9 10
9 11
9 12
9 13
10 11
10 12
10 13
11 13
12 13
12 14
13 14
